p cnf 200 908
1 2 3 4 5 0
6 7 8 9 10 0
11 12 13 14 15 0
16 17 18 19 20 0
21 22 23 24 25 0
26 27 28 29 30 0
31 32 33 34 35 0
36 37 38 39 40 0
41 42 43 44 45 0
46 47 48 49 50 0
51 52 53 54 55 0
56 57 58 59 60 0
61 62 63 64 65 0
66 67 68 69 70 0
71 72 73 74 75 0
76 77 78 79 80 0
81 82 83 84 85 0
86 87 88 89 90 0
91 92 93 94 95 0
96 97 98 99 100 0
101 102 103 104 105 0
106 107 108 109 110 0
111 112 113 114 115 0
116 117 118 119 120 0
121 122 123 124 125 0
126 127 128 129 130 0
131 132 133 134 135 0
136 137 138 139 140 0
141 142 143 144 145 0
146 147 148 149 150 0
151 152 153 154 155 0
156 157 158 159 160 0
161 162 163 164 165 0
166 167 168 169 170 0
171 172 173 174 175 0
176 177 178 179 180 0
181 182 183 184 185 0
186 187 188 189 190 0
191 192 193 194 195 0
196 197 198 199 200 0
-1 -2 0
-1 -3 0
-1 -4 0
-1 -5 0
-2 -3 0
-2 -4 0
-2 -5 0
-3 -4 0
-3 -5 0
-4 -5 0
-6 -7 0
-6 -8 0
-6 -9 0
-6 -10 0
-7 -8 0
-7 -9 0
-7 -10 0
-8 -9 0
-8 -10 0
-9 -10 0
-11 -12 0
-11 -13 0
-11 -14 0
-11 -15 0
-12 -13 0
-12 -14 0
-12 -15 0
-13 -14 0
-13 -15 0
-14 -15 0
-16 -17 0
-16 -18 0
-16 -19 0
-16 -20 0
-17 -18 0
-17 -19 0
-17 -20 0
-18 -19 0
-18 -20 0
-19 -20 0
-21 -22 0
-21 -23 0
-21 -24 0
-21 -25 0
-22 -23 0
-22 -24 0
-22 -25 0
-23 -24 0
-23 -25 0
-24 -25 0
-26 -27 0
-26 -28 0
-26 -29 0
-26 -30 0
-27 -28 0
-27 -29 0
-27 -30 0
-28 -29 0
-28 -30 0
-29 -30 0
-31 -32 0
-31 -33 0
-31 -34 0
-31 -35 0
-32 -33 0
-32 -34 0
-32 -35 0
-33 -34 0
-33 -35 0
-34 -35 0
-36 -37 0
-36 -38 0
-36 -39 0
-36 -40 0
-37 -38 0
-37 -39 0
-37 -40 0
-38 -39 0
-38 -40 0
-39 -40 0
-41 -42 0
-41 -43 0
-41 -44 0
-41 -45 0
-42 -43 0
-42 -44 0
-42 -45 0
-43 -44 0
-43 -45 0
-44 -45 0
-46 -47 0
-46 -48 0
-46 -49 0
-46 -50 0
-47 -48 0
-47 -49 0
-47 -50 0
-48 -49 0
-48 -50 0
-49 -50 0
-51 -52 0
-51 -53 0
-51 -54 0
-51 -55 0
-52 -53 0
-52 -54 0
-52 -55 0
-53 -54 0
-53 -55 0
-54 -55 0
-56 -57 0
-56 -58 0
-56 -59 0
-56 -60 0
-57 -58 0
-57 -59 0
-57 -60 0
-58 -59 0
-58 -60 0
-59 -60 0
-61 -62 0
-61 -63 0
-61 -64 0
-61 -65 0
-62 -63 0
-62 -64 0
-62 -65 0
-63 -64 0
-63 -65 0
-64 -65 0
-66 -67 0
-66 -68 0
-66 -69 0
-66 -70 0
-67 -68 0
-67 -69 0
-67 -70 0
-68 -69 0
-68 -70 0
-69 -70 0
-71 -72 0
-71 -73 0
-71 -74 0
-71 -75 0
-72 -73 0
-72 -74 0
-72 -75 0
-73 -74 0
-73 -75 0
-74 -75 0
-76 -77 0
-76 -78 0
-76 -79 0
-76 -80 0
-77 -78 0
-77 -79 0
-77 -80 0
-78 -79 0
-78 -80 0
-79 -80 0
-81 -82 0
-81 -83 0
-81 -84 0
-81 -85 0
-82 -83 0
-82 -84 0
-82 -85 0
-83 -84 0
-83 -85 0
-84 -85 0
-86 -87 0
-86 -88 0
-86 -89 0
-86 -90 0
-87 -88 0
-87 -89 0
-87 -90 0
-88 -89 0
-88 -90 0
-89 -90 0
-91 -92 0
-91 -93 0
-91 -94 0
-91 -95 0
-92 -93 0
-92 -94 0
-92 -95 0
-93 -94 0
-93 -95 0
-94 -95 0
-96 -97 0
-96 -98 0
-96 -99 0
-96 -100 0
-97 -98 0
-97 -99 0
-97 -100 0
-98 -99 0
-98 -100 0
-99 -100 0
-101 -102 0
-101 -103 0
-101 -104 0
-101 -105 0
-102 -103 0
-102 -104 0
-102 -105 0
-103 -104 0
-103 -105 0
-104 -105 0
-106 -107 0
-106 -108 0
-106 -109 0
-106 -110 0
-107 -108 0
-107 -109 0
-107 -110 0
-108 -109 0
-108 -110 0
-109 -110 0
-111 -112 0
-111 -113 0
-111 -114 0
-111 -115 0
-112 -113 0
-112 -114 0
-112 -115 0
-113 -114 0
-113 -115 0
-114 -115 0
-116 -117 0
-116 -118 0
-116 -119 0
-116 -120 0
-117 -118 0
-117 -119 0
-117 -120 0
-118 -119 0
-118 -120 0
-119 -120 0
-121 -122 0
-121 -123 0
-121 -124 0
-121 -125 0
-122 -123 0
-122 -124 0
-122 -125 0
-123 -124 0
-123 -125 0
-124 -125 0
-126 -127 0
-126 -128 0
-126 -129 0
-126 -130 0
-127 -128 0
-127 -129 0
-127 -130 0
-128 -129 0
-128 -130 0
-129 -130 0
-131 -132 0
-131 -133 0
-131 -134 0
-131 -135 0
-132 -133 0
-132 -134 0
-132 -135 0
-133 -134 0
-133 -135 0
-134 -135 0
-136 -137 0
-136 -138 0
-136 -139 0
-136 -140 0
-137 -138 0
-137 -139 0
-137 -140 0
-138 -139 0
-138 -140 0
-139 -140 0
-141 -142 0
-141 -143 0
-141 -144 0
-141 -145 0
-142 -143 0
-142 -144 0
-142 -145 0
-143 -144 0
-143 -145 0
-144 -145 0
-146 -147 0
-146 -148 0
-146 -149 0
-146 -150 0
-147 -148 0
-147 -149 0
-147 -150 0
-148 -149 0
-148 -150 0
-149 -150 0
-151 -152 0
-151 -153 0
-151 -154 0
-151 -155 0
-152 -153 0
-152 -154 0
-152 -155 0
-153 -154 0
-153 -155 0
-154 -155 0
-156 -157 0
-156 -158 0
-156 -159 0
-156 -160 0
-157 -158 0
-157 -159 0
-157 -160 0
-158 -159 0
-158 -160 0
-159 -160 0
-161 -162 0
-161 -163 0
-161 -164 0
-161 -165 0
-162 -163 0
-162 -164 0
-162 -165 0
-163 -164 0
-163 -165 0
-164 -165 0
-166 -167 0
-166 -168 0
-166 -169 0
-166 -170 0
-167 -168 0
-167 -169 0
-167 -170 0
-168 -169 0
-168 -170 0
-169 -170 0
-171 -172 0
-171 -173 0
-171 -174 0
-171 -175 0
-172 -173 0
-172 -174 0
-172 -175 0
-173 -174 0
-173 -175 0
-174 -175 0
-176 -177 0
-176 -178 0
-176 -179 0
-176 -180 0
-177 -178 0
-177 -179 0
-177 -180 0
-178 -179 0
-178 -180 0
-179 -180 0
-181 -182 0
-181 -183 0
-181 -184 0
-181 -185 0
-182 -183 0
-182 -184 0
-182 -185 0
-183 -184 0
-183 -185 0
-184 -185 0
-186 -187 0
-186 -188 0
-186 -189 0
-186 -190 0
-187 -188 0
-187 -189 0
-187 -190 0
-188 -189 0
-188 -190 0
-189 -190 0
-191 -192 0
-191 -193 0
-191 -194 0
-191 -195 0
-192 -193 0
-192 -194 0
-192 -195 0
-193 -194 0
-193 -195 0
-194 -195 0
-196 -197 0
-196 -198 0
-196 -199 0
-196 -200 0
-197 -198 0
-197 -199 0
-197 -200 0
-198 -199 0
-198 -200 0
-199 -200 0
-2 -18 0
-4 -17 0
-3 -53 0
-4 -53 0
-4 -61 0
-2 -61 0
-4 -79 0
-5 -80 0
-2 -82 0
-2 -84 0
-3 -89 0
-1 -89 0
-2 -111 0
-5 -111 0
-5 -152 0
-4 -155 0
-1 -169 0
-1 -168 0
-4 -173 0
-5 -173 0
-2 -184 0
-2 -181 0
-2 -194 0
-4 -194 0
-8 -22 0
-9 -23 0
-6 -60 0
-6 -56 0
-9 -82 0
-6 -83 0
-9 -107 0
-10 -107 0
-9 -123 0
-7 -124 0
-10 -136 0
-6 -136 0
-10 -148 0
-8 -147 0
-6 -151 0
-6 -152 0
-13 -23 0
-11 -23 0
-12 -45 0
-13 -41 0
-12 -68 0
-11 -70 0
-13 -72 0
-11 -72 0
-13 -93 0
-15 -93 0
-11 -101 0
-11 -102 0
-11 -122 0
-13 -121 0
-12 -142 0
-14 -145 0
-18 -61 0
-18 -62 0
-17 -78 0
-17 -80 0
-18 -82 0
-19 -85 0
-16 -113 0
-20 -111 0
-17 -135 0
-20 -131 0
-19 -138 0
-16 -137 0
-19 -145 0
-20 -143 0
-20 -148 0
-20 -146 0
-16 -156 0
-19 -160 0
-20 -170 0
-18 -168 0
-18 -171 0
-19 -173 0
-24 -27 0
-25 -29 0
-25 -35 0
-21 -33 0
-24 -36 0
-24 -40 0
-22 -70 0
-24 -66 0
-21 -85 0
-21 -83 0
-25 -96 0
-22 -99 0
-23 -101 0
-24 -105 0
-23 -112 0
-23 -111 0
-21 -130 0
-21 -128 0
-21 -196 0
-22 -196 0
-28 -32 0
-30 -33 0
-28 -40 0
-27 -36 0
-26 -47 0
-27 -50 0
-26 -70 0
-30 -67 0
-29 -84 0
-29 -83 0
-28 -87 0
-30 -89 0
-27 -98 0
-28 -96 0
-27 -118 0
-27 -117 0
-27 -130 0
-30 -126 0
-26 -169 0
-29 -166 0
-34 -39 0
-32 -38 0
-32 -49 0
-33 -48 0
-33 -63 0
-35 -62 0
-33 -95 0
-31 -93 0
-34 -133 0
-31 -134 0
-34 -138 0
-33 -140 0
-34 -159 0
-31 -159 0
-32 -162 0
-34 -161 0
-35 -195 0
-34 -191 0
-33 -197 0
-34 -199 0
-36 -57 0
-37 -56 0
-36 -62 0
-39 -64 0
-37 -86 0
-36 -88 0
-38 -100 0
-36 -97 0
-37 -164 0
-40 -161 0
-38 -179 0
-38 -176 0
-42 -49 0
-45 -47 0
-43 -80 0
-41 -76 0
-42 -95 0
-43 -95 0
-41 -120 0
-45 -120 0
-42 -134 0
-43 -134 0
-43 -160 0
-45 -160 0
-44 -163 0
-44 -161 0
-44 -166 0
-41 -168 0
-44 -189 0
-44 -190 0
-46 -97 0
-48 -98 0
-50 -126 0
-50 -129 0
-46 -131 0
-48 -132 0
-46 -144 0
-47 -145 0
-50 -164 0
-50 -163 0
-49 -187 0
-50 -187 0
-48 -193 0
-50 -195 0
-51 -56 0
-53 -56 0
-53 -69 0
-51 -69 0
-55 -71 0
-53 -71 0
-55 -77 0
-52 -76 0
-51 -84 0
-55 -81 0
-54 -98 0
-54 -96 0
-52 -105 0
-55 -103 0
-52 -112 0
-54 -114 0
-54 -122 0
-54 -123 0
-53 -146 0
-54 -150 0
-52 -177 0
-52 -176 0
-52 -183 0
-55 -184 0
-56 -69 0
-59 -68 0
-58 -79 0
-58 -76 0
-58 -99 0
-59 -99 0
-56 -103 0
-56 -101 0
-59 -113 0
-57 -111 0
-56 -160 0
-59 -157 0
-60 -165 0
-56 -164 0
-57 -199 0
-56 -196 0
-65 -90 0
-63 -90 0
-64 -91 0
-63 -94 0
-61 -125 0
-64 -122 0
-62 -139 0
-62 -137 0
-61 -145 0
-62 -141 0
-62 -150 0
-61 -150 0
-62 -199 0
-63 -200 0
-69 -84 0
-68 -82 0
-66 -113 0
-68 -113 0
-66 -117 0
-69 -117 0
-70 -141 0
-69 -142 0
-67 -148 0
-66 -147 0
-66 -171 0
-70 -174 0
-75 -83 0
-75 -85 0
-73 -104 0
-71 -102 0
-74 -109 0
-74 -108 0
-72 -139 0
-74 -140 0
-71 -165 0
-71 -163 0
-72 -168 0
-74 -166 0
-71 -190 0
-75 -188 0
-72 -192 0
-73 -192 0
-80 -85 0
-78 -85 0
-80 -87 0
-78 -89 0
-78 -93 0
-77 -92 0
-76 -104 0
-80 -103 0
-79 -127 0
-77 -126 0
-80 -136 0
-80 -139 0
-76 -144 0
-80 -143 0
-80 -163 0
-76 -161 0
-80 -176 0
-76 -180 0
-78 -181 0
-77 -184 0
-77 -194 0
-78 -195 0
-79 -196 0
-80 -197 0
-85 -87 0
-85 -90 0
-85 -94 0
-83 -91 0
-83 -102 0
-83 -103 0
-85 -130 0
-81 -129 0
-82 -138 0
-85 -138 0
-83 -149 0
-82 -146 0
-85 -170 0
-82 -169 0
-85 -186 0
-84 -189 0
-88 -148 0
-88 -149 0
-90 -151 0
-86 -151 0
-87 -159 0
-86 -158 0
-89 -192 0
-88 -195 0
-91 -118 0
-94 -116 0
-91 -122 0
-93 -124 0
-92 -145 0
-92 -144 0
-94 -148 0
-94 -147 0
-95 -155 0
-92 -151 0
-94 -159 0
-95 -157 0
-94 -176 0
-91 -176 0
-94 -196 0
-94 -199 0
-98 -115 0
-100 -112 0
-99 -126 0
-99 -128 0
-97 -138 0
-97 -140 0
-98 -141 0
-97 -141 0
-100 -146 0
-96 -149 0
-96 -152 0
-99 -151 0
-100 -167 0
-98 -167 0
-96 -177 0
-100 -180 0
-96 -193 0
-98 -193 0
-98 -199 0
-100 -200 0
-101 -109 0
-105 -110 0
-103 -120 0
-105 -118 0
-103 -134 0
-105 -133 0
-105 -142 0
-103 -144 0
-102 -160 0
-103 -159 0
-103 -164 0
-104 -161 0
-102 -177 0
-105 -179 0
-103 -181 0
-103 -183 0
-104 -194 0
-104 -195 0
-107 -118 0
-106 -119 0
-108 -126 0
-110 -130 0
-106 -133 0
-109 -135 0
-107 -163 0
-110 -164 0
-107 -185 0
-110 -185 0
-109 -197 0
-109 -196 0
-115 -133 0
-113 -134 0
-114 -140 0
-113 -139 0
-114 -165 0
-113 -164 0
-114 -167 0
-111 -167 0
-112 -177 0
-114 -178 0
-114 -189 0
-112 -190 0
-114 -193 0
-115 -193 0
-112 -197 0
-115 -196 0
-117 -122 0
-118 -123 0
-116 -140 0
-119 -137 0
-118 -149 0
-117 -150 0
-118 -200 0
-117 -200 0
-124 -137 0
-125 -138 0
-124 -151 0
-122 -153 0
-121 -167 0
-123 -170 0
-123 -187 0
-123 -189 0
-128 -139 0
-129 -137 0
-127 -141 0
-129 -144 0
-126 -175 0
-130 -173 0
-129 -178 0
-129 -176 0
-135 -182 0
-132 -182 0
-136 -141 0
-138 -145 0
-138 -146 0
-136 -148 0
-136 -191 0
-140 -193 0
-145 -153 0
-141 -153 0
-143 -167 0
-144 -169 0
-143 -185 0
-142 -181 0
-145 -197 0
-144 -197 0
-146 -153 0
-149 -154 0
-148 -156 0
-150 -157 0
-148 -173 0
-150 -173 0
-148 -191 0
-149 -193 0
-151 -173 0
-151 -172 0
-154 -180 0
-153 -177 0
-158 -165 0
-158 -161 0
-160 -168 0
-156 -168 0
-163 -167 0
-161 -168 0
-161 -186 0
-162 -188 0
-167 -171 0
-167 -173 0
-166 -193 0
-169 -192 0
-166 -196 0
-169 -199 0
-175 -181 0
-173 -184 0
-178 -199 0
-178 -196 0
-183 -188 0
-183 -189 0
-190 -196 0
-187 -200 0
